data/benchmarks/bayes/75-14-7-q.cnf
p cnf 924 903
c weights 0.491382 0.508618 1 1 1 1 1 1 1 1 1 1 1 1 1 1 1 1 1 1 1 1 1 1 1 1 1 1 1 1 1 1 1 1 1 1 1 1 1 1 1 1 1 1 1 1 1 1 1 1 1 1 1 1 1 1 1 1 1 1 1 1 1 1 1 1 1 1 1 1 1 1 1 1 1 1 1 1 1 1 1 1 1 1 1 1 1 1 1 1 1 1 1 1 1 1 1 1 1 1 1 1 1 1 1 1 1 1 1 1 1 1 1 1 1 1 1 1 1 1 1 1 1 1 1 1 1 1 1 1 1 1 1 1 1 1 1 1 1 1 1 1 1 1 1 1 1 1 1 1 1 1 1 1 1 1 1 1 1 1 1 1 1 1 1 1 1 1 1 1 1 1 1 1 1 1 1 1 1 1 1 1 1 1 1 1 1 1 1 1 1 1 1 1 1 1 1 1 1 1 1 1 1 1 1 1 1 1 1 1 1 1 1 1 1 1 1 1 1 1 1 1 1 1 1 1 1 1 1 1 1 1 1 1 1 1 1 1 1 1 1 1 1 1 1 1 1 1 1 1 1 1 1 1 1 1 1 1 1 1 1 1 1 1 1 1 1 1 1 1 1 1 1 1 1 1 1 1 1 1 1 1 1 1 1 1 1 1 1 1 1 1 1 1 1 1 1 1 1 1 1 1 1 1 1 1 1 1 1 1 1 1 1 1 1 1 1 1 1 1 1 1 1 1 1 1 1 1 1 1 1 1 1 1 1 1 1 1 1 1 1 1 1 1 1 1 1 1 1 1 1 1 1 1 1 1 1 1 1 1 1 1 1 1 1 1 1 1 1 1 1 1 1 1 1 1 1 1 1 1 1 1 1 1 1 1 1 1 1 1 1 1 0.778386 0.22161399999999998 0.670308 0.329692 0.0956763 0.9043237 0.916201 0.08379899999999996 0.5 0.5 0.5 0.5 0.5 0.5 0.5 0.5 0.595605 0.40439499999999995 0.73267 0.26732999999999996 0.5 0.5 0.5 0.5 0.5 0.5 0.5 0.5 0.5 0.5 0.5 0.5 0.5 0.5 0.5 0.5 0.5 0.5 0.5 0.5 0.5 0.5 0.5 0.5 0.00986268 0.99013732 0.910535 0.08946500000000002 0.266913 0.733087 0.401917 0.5980829999999999 0.5 0.5 0.5 0.5 0.5 0.5 0.5 0.5 0.5 0.5 0.5 0.5 0.674666 0.325334 0.714308 0.28569199999999995 0.669254 0.330746 0.270271 0.7297290000000001 0.5 0.5 0.5 0.5 0.5 0.5 0.5 0.5 0.5 0.5 0.5 0.5 0.5 0.5 0.5 0.5 0.5 0.5 0.5 0.5 0.5 0.5 0.5 0.5 0.5 0.5 0.5 0.5 0.5 0.5 0.5 0.5 0.135666 0.8643339999999999 0.17957 0.82043 0.926207 0.073793 0.124092 0.875908 0.5 0.5 0.5 0.5 0.5 0.5 0.5 0.5 0.5 0.5 0.5 0.5 0.5 0.5 0.5 0.5 0.5 0.5 0.5 0.5 0.5 0.5 0.5 0.5 0.0802822 0.9197178 0.0359299 0.9640701 0.681281 0.318719 0.0216987 0.9783013 0.5 0.5 0.5 0.5 0.5 0.5 0.5 0.5 0.5 0.5 0.5 0.5 0.5 0.5 0.5 0.5 0.5 0.5 0.5 0.5 0.5 0.5 0.5 0.5 0.5 0.5 0.5 0.5 0.5 0.5 0.5 0.5 0.5 0.5 0.5 0.5 0.5 0.5 0.5 0.5 0.5 0.5 0.5 0.5 0.5 0.5 0.5 0.5 0.5 0.5 0.5 0.5 0.100728 0.899272 0.40005 0.59995 0.393518 0.606482 0.531694 0.468306 0.5 0.5 0.5 0.5 0.5 0.5 0.5 0.5 0.5 0.5 0.5 0.5 0.5 0.5 0.5 0.5 0.5 0.5 0.5 0.5 0.5 0.5 0.5 0.5 0.192437 0.807563 0.569265 0.430735 0.990987 0.009013000000000049 0.798723 0.20127700000000004 0.5 0.5 0.5 0.5 0.5 0.5 0.5 0.5 0.5 0.5 0.5 0.5 0.5 0.5 0.5 0.5 0.5 0.5 0.5 0.5 0.5 0.5 0.5 0.5 0.5 0.5 0.5 0.5 0.5 0.5 0.5 0.5 0.5 0.5 0.5 0.5 0.798408 0.201592 0.919666 0.08033400000000002 0.329021 0.670979 0.655482 0.344518 0.5 0.5 0.5 0.5 0.5 0.5 0.5 0.5 0.351766 0.648234 0.607662 0.39233799999999996 0.292725 0.707275 0.943873 0.05612700000000004 0.834528 0.16547199999999995 0.93603 0.06396999999999997 0.32957 0.6704300000000001 0.908026 0.091974 0.5 0.5 0.5 0.5 0.5 0.5 0.5 0.5 0.5 0.5 0.5 0.5 0.5 0.5 0.5 0.5 0.52241 0.47758999999999996 0.926185 0.07381499999999996 0.758455 0.241545 0.851432 0.14856800000000003 0.5 0.5 0.5 0.5 0.5 0.5 0.5 0.5 0.5 0.5 0.5 0.5 0.5 0.5 0.5 0.5 0.5 0.5 0.5 0.5 0.5 0.5 0.5 0.5 0.5 0.5 0.5 0.5 0.5 0.5 0.5 0.5 0.639144 0.36085599999999995 0.707585 0.292415 0.579104 0.42089600000000005 0.766921 0.23307900000000004 0.5 0.5 0.5 0.5 0.5 0.5 0.5 0.5 0.5 0.5 0.5 0.5 0.5 0.5 0.5 0.5 0.5 0.5 0.5 0.5 0.5 0.5 0.5 0.5 0.5 0.5 0.5 0.5 0.5 0.5 0.5 0.5 0.5 0.5 0.5 0.5 0.516133 0.48386700000000005 0.113964 0.886036 0.462557 0.537443 0.365481 0.634519 0.170142 0.829858 0.944585 0.05541499999999999 0.520029 0.47997100000000004 0.716516 0.28348399999999996 0.5 0.5 0.5 0.5 0.5 0.5 0.5 0.5 0.5 0.5 0.5 0.5 0.5 0.5 0.5 0.5 0.5 0.5 0.5 0.5 0.5 0.5 0.5 0.5 0.5 0.5 0.5 0.5 0.5 0.5 0.5 0.5 0.5 0.5 0.5 0.5 0.5 0.5 0.5 0.5 0.5 0.5 0.5 0.5 0.5 0.5 0.5 0.5 0.745995 0.25400500000000004 0.811628 0.18837199999999998 0.839629 0.16037100000000004 0.233903 0.766097 0.5 0.5 0.5 0.5 0.5 0.5 0.5 0.5 0.405283 0.5947169999999999 0.382244 0.617756 0.5 0.5 0.5 0.5 0.5 0.5 0.5 0.5 0.5 0.5 0.5 0.5 0.5 0.5 0.5 0.5 0.822277 0.17772299999999996 0.320515 0.679485 0.824322 0.175678 0.896044 0.10395600000000005 0.5 0.5 0.5 0.5 0.5 0.5 0.5 0.5 0.5 0.5 0.5 0.5 0.5 0.5 0.5 0.5 0.5 0.5 0.5 0.5 0.5 0.5 0.5 0.5 0.5 0.5 0.5 0.5 0.5 0.5 0.5 0.5 0.5 0.5 0.5 0.5 0.5 0.5 0.5 0.5 0.5 0.5 0.5 0.5 0.5 0.5 0.5 0.5 0.5 0.5 0.5 0.5 0.5 0.5 0.5 0.5 0.5 0.5 0.5 0.5 0.5 0.5 0.5 0.5 0.187827 0.812173 0.14729 0.85271 0.20197 0.79803 0.261287 0.738713 0.888955 0.11104499999999995 0.150395 0.8496049999999999 0.706747 0.293253 0.59386 0.40613999999999995 0.5 0.5 0.5 0.5 0.5 0.5 0.5 0.5 0.5 0.5 0.5 0.5 0.928934 0.07106599999999996 0.433465 0.566535 0.771614 0.22838599999999998 0.526172 0.473828 0.5 0.5 0.5 0.5 0.5 0.5 0.5 0.5 0.5 0.5 0.5 0.5 0.5 0.5 0.5 0.5 0.5 0.5 0.5 0.5 0.5 0.5 0.5 0.5 0.5 0.5 0.5 0.5 0.5 0.5 0.5 0.5 0.5 0.5 0.5 0.5 0.5 0.5 0.5 0.5 0.683853 0.31614699999999996 0.541624 0.458376 0.580433 0.419567 0.210025 0.789975 0.867426 0.13257399999999997 0.289014 0.710986 0.0313647 0.9686353 0.167752 0.832248 0.5 0.5 0.5 0.5 0.5 0.5 0.5 0.5 0.0864858 0.9135142 0.406812 0.593188 0.26462 0.7353799999999999 0.337612 0.662388 0.684104 0.31589599999999995 0.295486 0.704514 0.859464 0.140536 0.5491 0.45089999999999997 0.5 0.5 0.5 0.5 0.5 0.5 0.5 0.5 0.827262 0.17273799999999995 0.606461 0.39353899999999997 0.5 0.5 0.5 0.5 0.5 0.5 0.5 0.5 0.5 0.5 0.5 0.5 0.5 0.5 0.5 0.5 0.5 0.5 0.5 0.5 0.5 0.5 0.5 0.5 0.5 0.5 0.5 0.5 0.5 0.5 0.5 0.5 0.5 0.5 0.5 0.5 0.5 0.5 0.5 0.5 0.5 0.5 0.5 0.5 0.5 0.5 0.5 0.5 0.5 0.5 0.5 0.5 0.5 0.5 0.5 0.5 0.5 0.5 0.5 0.5 0.5 0.5 0.5 0.5 0.788765 0.21123499999999995 0.502592 0.49740799999999996 0.349036 0.650964 0.524388 0.47561200000000003 0.5 0.5 0.5 0.5 0.5 0.5 0.5 0.5 0.5 0.5 0.5 0.5 0.5 0.5 0.5 0.5 0.5 0.5 0.5 0.5 0.5 0.5 0.5 0.5 0.5 0.5 0.5 0.5 0.5 0.5 0.5 0.5 0.5 0.5 0.5 0.5 0.269049 0.730951 0.632162 0.367838 0.557449 0.442551 0.771642 0.22835799999999995 0.0818369 0.9181631 0.277921 0.722079 0.0209871 0.9790129 0.679461 0.320539 0.5 0.5 0.5 0.5 0.5 0.5 0.5 0.5 0.5 0.5 0.5 0.5 0.5 0.5 0.5 0.5 0.5 0.5 0.5 0.5 0.5 0.5 0.5 0.5 0.5 0.5 0.5 0.5 0.5 0.5 0.5 0.5 0.5 0.5 0.5 0.5 0.5 0.5 0.5 0.5 0.259984 0.740016 0.730781 0.269219 0.242986 0.757014 0.280971 0.7190289999999999 0.5 0.5 0.5 0.5 0.5 0.5 0.5 0.5 0.5 0.5 0.5 0.5 0.5 0.5 0.5 0.5 0.5 0.5 0.5 0.5 0.5 0.5 0.5 0.5 0.5 0.5 0.5 0.5 0.5 0.5 0.5 0.5 0.5 0.5 0.5 0.5 0.5 0.5 0.5 0.5 0.5 0.5 0.5 0.5 0.5 0.5 0.5 0.5 0.5 0.5 0.5 0.5 0.5 0.5 0.5 0.5 0.5 0.5 0.5 0.5 0.5 0.5 0.5 0.5 0.5 0.5 0.5 0.5 0.5 0.5 0.5 0.5 0.5 0.5 0.5 0.5 0.5 0.5 0.5 0.5 0.5 0.5 0.5 0.5 0.5 0.5 0.5 0.5 0.5 0.5 0.5 0.5 0.5 0.5 0.5 0.5 0.5 0.5 0.5 0.5 0.275217 0.724783 0.798468 0.20153200000000004 0.711371 0.288629 0.449267 0.5507329999999999 0.5 0.5 0.5 0.5 0.5 0.5 0.5 0.5 0.5 0.5 0.5 0.5 0.5 0.5 0.5 0.5 0.5 0.5 0.5 0.5 0.5 0.5 0.5 0.5 0.504073 0.495927 0.587773 0.412227 0.749051 0.250949 0.861653 0.138347 0.5 0.5 0.5 0.5 0.5 0.5 0.5 0.5 0.935582 0.06441799999999998 0.396814 0.603186 0.5 0.5 0.5 0.5 0.5 0.5 0.5 0.5 0.5 0.5 0.5 0.5 0.5 0.5 0.5 0.5 0.859226 0.14077399999999995 0.764691 0.235309 0.66636 0.33364000000000005 0.759042 0.240958 0.5 0.5 0.5 0.5 0.5 0.5 0.5 0.5 0.5 0.5 0.5 0.5 0.5 0.5 0.5 0.5 0.5 0.5 0.5 0.5 0.5 0.5 0.5 0.5 0.5 0.5 0.5 0.5 0.5 0.5 0.5 0.5 0.5 0.5 0.5 0.5 0.5 0.5 0.5 0.5 0.5 0.5 0.5 0.5 0.5 0.5 0.5 0.5 0.5 0.5 0.5 0.5 0.5 0.5 0.5 0.5 0.595522 0.404478 0.219874 0.780126 0.826674 0.17332599999999998 0.0498092 0.9501908 0.995782 0.004218000000000055 0.18954 0.81046 0.185701 0.814299 0.100473 0.899527 0.5 0.5 0.5 0.5 0.5 0.5 0.5 0.5 0.5 0.5 0.5 0.5 0.5 0.5 0.5 0.5 0.5 0.5 0.5 0.5 0.365503 0.634497 0.620626 0.379374 0.117297 0.882703 0.712775 0.28722499999999995 0.161959 0.838041 0.851629 0.14837100000000003 0.749874 0.25012599999999996 0.757481 0.24251900000000004 0.5 0.5 0.5 0.5 0.5 0.5 0.5 0.5 0.5 0.5 0.5 0.5 0.5 0.5 0.5 0.5 0.5 0.5 0.5 0.5 0.5 0.5 0.5 0.5 0.631932 0.36806799999999995 0.305006 0.694994 0.0850528 0.9149472 0.629051 0.370949 0.5 0.5 0.5 0.5 0.5 0.5 0.5 0.5 0.5 0.5 0.5 0.5 0.5 0.5 0.5 0.5 0.5 0.5 0.5 0.5 0.5 0.5 0.5 0.5 0.0360074 0.9639926 0.776426 0.22357400000000005 0.630622 0.369378 0.898622 0.10137799999999997 0.00248211 0.99751789 0.426208 0.5737920000000001 0.973859 0.02614099999999997 0.501759 0.49824100000000004 0.5 0.5 0.5 0.5 0.5 0.5 0.5 0.5 0.511545 0.488455 0.372479 0.627521 0.5 0.5 0.5 0.5 0.5 0.5 0.5 0.5 0.5 0.5 0.5 0.5 0.5 0.5 0.5 0.5 0.5 0.5 0.5 0.5 0.5 0.5 0.5 0.5 0.5 0.5 0.5 0.5 0.5 0.5 0.5 0.5 0.5 0.5 0.5 0.5 0.5 0.5 0.5 0.5 0.5 0.5 0.5 0.5 0.5 0.5 0.5 0.5 0.5 0.5 0.5 0.5 0.5 0.5 0.5 0.5 0.5 0.5 0.5 0.5 0.5 0.5 0.5 0.5 0.907291 0.09270900000000004 0.965489 0.03451099999999996 0.515347 0.484653 0.49067 0.5093300000000001 0.5 0.5 0.5 0.5 0.5 0.5 0.5 0.5 0.5 0.5 0.5 0.5 0.5 0.5 0.5 0.5 0.5 0.5 0.5 0.5 0.5 0.5 0.5 0.5 0.5 0.5 0.5 0.5 0.5 0.5 0.5 0.5 0.5 0.5 0.5 0.5 0.5 0.5 0.5 0.5 0.5 0.5 0.5 0.5 0.5 0.5 0.5 0.5 0.5 0.5 0.5 0.5 0.5 0.5 0.5 0.5 0.5 0.5 0.5 0.5 0.477173 0.5228269999999999 0.673354 0.326646 0.561883 0.438117 0.24174 0.7582599999999999 0.5 0.5 0.5 0.5 0.5 0.5 0.5 0.5 0.5 0.5 0.5 0.5 0.5 0.5 0.5 0.5 0.5 0.5 0.5 0.5 0.5 0.5 0.5 0.5 0.0860354 0.9139646 0.42498 0.57502 0.576338 0.423662 0.818643 0.181357 0.505211 0.49478900000000003 0.573298 0.426702 0.850968 0.14903200000000005 0.690064 0.309936 0.5 0.5 0.5 0.5 0.5 0.5 0.5 0.5 0.5 0.5 0.5 0.5 0.5 0.5 0.5 0.5 0.5 0.5 0.5 0.5 0.5 0.5 0.5 0.5 0.5 0.5 0.5 0.5 0.5 0.5 0.5 0.5
-1 -197 2 0
-1 197 -2 0
1 -198 2 0
1 198 -2 0
-2 -199 3 0
-2 199 -3 0
2 -200 3 0
2 200 -3 0
-3 4 0
3 -4 0
-4 5 0
4 -5 0
-5 -205 6 0
-5 205 -6 0
5 -206 6 0
5 206 -6 0
-6 -7 0
6 7 0
-7 8 0
7 -8 0
-8 9 0
8 -9 0
-9 10 0
9 -10 0
-10 -11 0
10 11 0
-11 -12 0
11 12 0
-12 -219 13 0
-12 219 -13 0
12 -220 13 0
12 220 -13 0
-13 -221 14 0
-13 221 -14 0
13 -222 14 0
13 222 -14 0
-1 -15 0
1 15 0
-15 -2 16 0
-15 2 -16 0
15 -2 -16 0
15 2 16 0
-16 -3 -229 17 0
-16 -3 229 -17 0
-16 3 -230 17 0
-16 3 230 -17 0
16 -3 -231 17 0
16 -3 231 -17 0
16 3 -232 17 0
16 3 232 -17 0
-17 -4 -18 0
-17 4 18 0
17 -4 -18 0
17 4 18 0
-18 -5 19 0
-18 5 -19 0
18 -5 -19 0
18 5 -19 0
-19 -6 -20 0
-19 6 -20 0
19 -6 20 0
19 6 -20 0
-20 -7 -21 0
-20 7 -21 0
20 -7 -21 0
20 7 21 0
-21 -8 -249 22 0
-21 -8 249 -22 0
-21 8 -250 22 0
-21 8 250 -22 0
21 -8 -251 22 0
21 -8 251 -22 0
21 8 -252 22 0
21 8 252 -22 0
-22 -9 23 0
-22 9 -23 0
22 -9 23 0
22 9 23 0
-23 -10 24 0
-23 10 24 0
23 -10 -24 0
23 10 -24 0
-24 -11 -25 0
-24 11 25 0
24 -11 25 0
24 11 -25 0
-25 -12 -265 26 0
-25 -12 265 -26 0
-25 12 -266 26 0
-25 12 266 -26 0
25 -12 -267 26 0
25 -12 267 -26 0
25 12 -268 26 0
25 12 268 -26 0
-26 -13 -27 0
-26 13 27 0
26 -13 27 0
26 13 -27 0
-27 -14 28 0
-27 14 28 0
27 -14 -28 0
27 14 28 0
-15 -29 0
15 29 0
-29 -16 -30 0
-29 16 -30 0
29 -16 -30 0
29 16 30 0
-30 -17 -31 0
-30 17 31 0
30 -17 31 0
30 17 31 0
-31 -18 32 0
-31 18 -32 0
31 -18 -32 0
31 18 -32 0
-32 -19 33 0
-32 19 -33 0
32 -19 -33 0
32 19 33 0
-33 -20 -295 34 0
-33 -20 295 -34 0
-33 20 -296 34 0
-33 20 296 -34 0
33 -20 -297 34 0
33 -20 297 -34 0
33 20 -298 34 0
33 20 298 -34 0
-34 -21 35 0
-34 21 -35 0
34 -21 35 0
34 21 35 0
-35 -22 -36 0
-35 22 -36 0
35 -22 36 0
35 22 36 0
-36 -23 -37 0
-36 23 37 0
36 -23 37 0
36 23 -37 0
-37 -24 -311 38 0
-37 -24 311 -38 0
-37 24 -312 38 0
-37 24 312 -38 0
37 -24 -313 38 0
37 -24 313 -38 0
37 24 -314 38 0
37 24 314 -38 0
-38 -25 39 0
-38 25 39 0
38 -25 -39 0
38 25 39 0
-39 -26 40 0
-39 26 -40 0
39 -26 -40 0
39 26 -40 0
-40 -27 -41 0
-40 27 41 0
40 -27 41 0
40 27 -41 0
-41 -28 -42 0
-41 28 -42 0
41 -28 42 0
41 28 42 0
-29 -43 0
29 43 0
-43 -30 -333 44 0
-43 -30 333 -44 0
-43 30 -334 44 0
-43 30 334 -44 0
43 -30 -335 44 0
43 -30 335 -44 0
43 30 -336 44 0
43 30 336 -44 0
-44 -31 45 0
-44 31 45 0
44 -31 -45 0
44 31 -45 0
-45 -32 -341 46 0
-45 -32 341 -46 0
-45 32 -342 46 0
-45 32 342 -46 0
45 -32 -343 46 0
45 -32 343 -46 0
45 32 -344 46 0
45 32 344 -46 0
-46 -33 -345 47 0
-46 -33 345 -47 0
-46 33 -346 47 0
-46 33 346 -47 0
46 -33 -347 47 0
46 -33 347 -47 0
46 33 -348 47 0
46 33 348 -47 0
-47 -34 48 0
-47 34 -48 0
47 -34 -48 0
47 34 -48 0
-48 -35 -49 0
-48 35 49 0
48 -35 -49 0
48 35 -49 0
-49 -36 -357 50 0
-49 -36 357 -50 0
-49 36 -358 50 0
-49 36 358 -50 0
49 -36 -359 50 0
49 -36 359 -50 0
49 36 -360 50 0
49 36 360 -50 0
-50 -37 -51 0
-50 37 51 0
50 -37 -51 0
50 37 -51 0
-51 -38 -52 0
-51 38 52 0
51 -38 -52 0
51 38 52 0
-52 -39 53 0
-52 39 -53 0
52 -39 53 0
52 39 53 0
-53 -40 54 0
-53 40 -54 0
53 -40 54 0
53 40 54 0
-54 -41 -377 55 0
-54 -41 377 -55 0
-54 41 -378 55 0
-54 41 378 -55 0
54 -41 -379 55 0
54 -41 379 -55 0
54 41 -380 55 0
54 41 380 -55 0
-55 -42 56 0
-55 42 -56 0
55 -42 -56 0
55 42 56 0
-43 -57 0
43 57 0
-57 -44 58 0
-57 44 -58 0
57 -44 -58 0
57 44 58 0
-58 -45 -59 0
-58 45 -59 0
58 -45 59 0
58 45 59 0
-59 -46 60 0
-59 46 60 0
59 -46 -60 0
59 46 -60 0
-60 -47 -399 61 0
-60 -47 399 -61 0
-60 47 -400 61 0
-60 47 400 -61 0
60 -47 -401 61 0
60 -47 401 -61 0
60 47 -402 61 0
60 47 402 -61 0
-61 -48 -403 62 0
-61 -48 403 -62 0
-61 48 -404 62 0
-61 48 404 -62 0
61 -48 -405 62 0
61 -48 405 -62 0
61 48 -406 62 0
61 48 406 -62 0
-62 -49 -63 0
-62 49 -63 0
62 -49 63 0
62 49 -63 0
-63 -50 64 0
-63 50 64 0
63 -50 64 0
63 50 -64 0
-64 -51 65 0
-64 51 65 0
64 -51 -65 0
64 51 65 0
-65 -52 66 0
-65 52 -66 0
65 -52 -66 0
65 52 66 0
-66 -53 67 0
-66 53 67 0
66 -53 67 0
66 53 -67 0
-67 -54 -68 0
-67 54 -68 0
67 -54 68 0
67 54 68 0
-68 -55 -431 69 0
-68 -55 431 -69 0
-68 55 -432 69 0
-68 55 432 -69 0
68 -55 -433 69 0
68 -55 433 -69 0
68 55 -434 69 0
68 55 434 -69 0
-69 -56 -70 0
-69 56 70 0
69 -56 70 0
69 56 70 0
-57 -439 71 0
-57 439 -71 0
57 -440 71 0
57 440 -71 0
-71 -58 72 0
-71 58 -72 0
71 -58 -72 0
71 58 -72 0
-72 -59 73 0
-72 59 -73 0
72 -59 -73 0
72 59 -73 0
-73 -60 -449 74 0
-73 -60 449 -74 0
-73 60 -450 74 0
-73 60 450 -74 0
73 -60 -451 74 0
73 -60 451 -74 0
73 60 -452 74 0
73 60 452 -74 0
-74 -61 -75 0
-74 61 75 0
74 -61 -75 0
74 61 -75 0
-75 -62 76 0
-75 62 -76 0
75 -62 -76 0
75 62 -76 0
-76 -63 -77 0
-76 63 -77 0
76 -63 77 0
76 63 77 0
-77 -64 -78 0
-77 64 78 0
77 -64 78 0
77 64 78 0
-78 -65 -79 0
-78 65 79 0
78 -65 79 0
78 65 -79 0
-79 -66 -80 0
-79 66 80 0
79 -66 80 0
79 66 -80 0
-80 -67 -81 0
-80 67 81 0
80 -67 81 0
80 67 -81 0
-81 -68 -82 0
-81 68 82 0
81 -68 -82 0
81 68 -82 0
-82 -69 -485 83 0
-82 -69 485 -83 0
-82 69 -486 83 0
-82 69 486 -83 0
82 -69 -487 83 0
82 -69 487 -83 0
82 69 -488 83 0
82 69 488 -83 0
-83 -70 -489 84 0
-83 -70 489 -84 0
-83 70 -490 84 0
-83 70 490 -84 0
83 -70 -491 84 0
83 -70 491 -84 0
83 70 -492 84 0
83 70 492 -84 0
-71 85 0
71 -85 0
-85 -72 86 0
-85 72 -86 0
85 -72 86 0
85 72 86 0
-86 -73 -499 87 0
-86 -73 499 -87 0
-86 73 -500 87 0
-86 73 500 -87 0
86 -73 -501 87 0
86 -73 501 -87 0
86 73 -502 87 0
86 73 502 -87 0
-87 -74 -88 0
-87 74 88 0
87 -74 88 0
87 74 88 0
-88 -75 -89 0
-88 75 89 0
88 -75 -89 0
88 75 89 0
-89 -76 -90 0
-89 76 90 0
89 -76 90 0
89 76 -90 0
-90 -77 -91 0
-90 77 -91 0
90 -77 91 0
90 77 -91 0
-91 -78 92 0
-91 78 -92 0
91 -78 -92 0
91 78 92 0
-92 -79 -523 93 0
-92 -79 523 -93 0
-92 79 -524 93 0
-92 79 524 -93 0
92 -79 -525 93 0
92 -79 525 -93 0
92 79 -526 93 0
92 79 526 -93 0
-93 -80 -527 94 0
-93 -80 527 -94 0
-93 80 -528 94 0
-93 80 528 -94 0
93 -80 -529 94 0
93 -80 529 -94 0
93 80 -530 94 0
93 80 530 -94 0
-94 -81 95 0
-94 81 95 0
94 -81 -95 0
94 81 -95 0
-95 -82 -535 96 0
-95 -82 535 -96 0
-95 82 -536 96 0
-95 82 536 -96 0
95 -82 -537 96 0
95 -82 537 -96 0
95 82 -538 96 0
95 82 538 -96 0
-96 -83 -539 97 0
-96 -83 539 -97 0
-96 83 -540 97 0
-96 83 540 -97 0
96 -83 -541 97 0
96 -83 541 -97 0
96 83 -542 97 0
96 83 542 -97 0
-97 -84 98 0
-97 84 -98 0
97 -84 98 0
97 84 -98 0
-85 -547 99 0
-85 547 -99 0
85 -548 99 0
85 548 -99 0
-99 -86 100 0
-99 86 -100 0
99 -86 -100 0
99 86 -100 0
-100 -87 101 0
-100 87 -101 0
100 -87 -101 0
100 87 -101 0
-101 -88 -102 0
-101 88 -102 0
101 -88 -102 0
101 88 102 0
-102 -89 -103 0
-102 89 103 0
102 -89 -103 0
102 89 -103 0
-103 -90 104 0
-103 90 104 0
103 -90 104 0
103 90 -104 0
-104 -91 105 0
-104 91 -105 0
104 -91 105 0
104 91 -105 0
-105 -92 106 0
-105 92 106 0
105 -92 106 0
105 92 -106 0
-106 -93 -107 0
-106 93 107 0
106 -93 -107 0
106 93 -107 0
-107 -94 -581 108 0
-107 -94 581 -108 0
-107 94 -582 108 0
-107 94 582 -108 0
107 -94 -583 108 0
107 -94 583 -108 0
107 94 -584 108 0
107 94 584 -108 0
-108 -95 -109 0
-108 95 109 0
108 -95 109 0
108 95 109 0
-109 -96 -110 0
-109 96 110 0
109 -96 110 0
109 96 110 0
-110 -97 -111 0
-110 97 -111 0
110 -97 111 0
110 97 111 0
-111 -98 -112 0
-111 98 112 0
111 -98 112 0
111 98 -112 0
-99 113 0
99 -113 0
-113 -100 -603 114 0
-113 -100 603 -114 0
-113 100 -604 114 0
-113 100 604 -114 0
113 -100 -605 114 0
113 -100 605 -114 0
113 100 -606 114 0
113 100 606 -114 0
-114 -101 -607 115 0
-114 -101 607 -115 0
-114 101 -608 115 0
-114 101 608 -115 0
114 -101 -609 115 0
114 -101 609 -115 0
114 101 -610 115 0
114 101 610 -115 0
-115 -102 116 0
-115 102 116 0
115 -102 -116 0
115 102 -116 0
-116 -103 117 0
-116 103 117 0
116 -103 117 0
116 103 -117 0
-117 -104 -118 0
-117 104 118 0
117 -104 118 0
117 104 -118 0
-118 -105 -119 0
-118 105 119 0
118 -105 -119 0
118 105 -119 0
-119 -106 120 0
-119 106 -120 0
119 -106 -120 0
119 106 120 0
-120 -107 -631 121 0
-120 -107 631 -121 0
-120 107 -632 121 0
-120 107 632 -121 0
120 -107 -633 121 0
120 -107 633 -121 0
120 107 -634 121 0
120 107 634 -121 0
-121 -108 -122 0
-121 108 122 0
121 -108 -122 0
121 108 -122 0
-122 -109 -123 0
-122 109 123 0
122 -109 123 0
122 109 123 0
-123 -110 124 0
-123 110 124 0
123 -110 -124 0
123 110 124 0
-124 -111 125 0
-124 111 -125 0
124 -111 -125 0
124 111 125 0
-125 -112 -126 0
-125 112 126 0
125 -112 126 0
125 112 126 0
-113 -127 0
113 127 0
-127 -114 -128 0
-127 114 128 0
127 -114 128 0
127 114 128 0
-128 -115 -129 0
-128 115 129 0
128 -115 129 0
128 115 129 0
-129 -116 -130 0
-129 116 130 0
129 -116 130 0
129 116 130 0
-130 -117 131 0
-130 117 -131 0
130 -117 -131 0
130 117 -131 0
-131 -118 -132 0
-131 118 132 0
131 -118 -132 0
131 118 -132 0
-132 -119 133 0
-132 119 133 0
132 -119 -133 0
132 119 -133 0
-133 -120 -134 0
-133 120 134 0
133 -120 134 0
133 120 134 0
-134 -121 -685 135 0
-134 -121 685 -135 0
-134 121 -686 135 0
-134 121 686 -135 0
134 -121 -687 135 0
134 -121 687 -135 0
134 121 -688 135 0
134 121 688 -135 0
-135 -122 136 0
-135 122 -136 0
135 -122 -136 0
135 122 -136 0
-136 -123 -137 0
-136 123 137 0
136 -123 137 0
136 123 -137 0
-137 -124 138 0
-137 124 -138 0
137 -124 -138 0
137 124 -138 0
-138 -125 -701 139 0
-138 -125 701 -139 0
-138 125 -702 139 0
-138 125 702 -139 0
138 -125 -703 139 0
138 -125 703 -139 0
138 125 -704 139 0
138 125 704 -139 0
-139 -126 140 0
-139 126 140 0
139 -126 -140 0
139 126 140 0
-127 -709 141 0
-127 709 -141 0
127 -710 141 0
127 710 -141 0
-141 -128 -142 0
-141 128 -142 0
141 -128 142 0
141 128 142 0
-142 -129 -143 0
-142 129 143 0
142 -129 143 0
142 129 143 0
-143 -130 -719 144 0
-143 -130 719 -144 0
-143 130 -720 144 0
-143 130 720 -144 0
143 -130 -721 144 0
143 -130 721 -144 0
143 130 -722 144 0
143 130 722 -144 0
-144 -131 -145 0
-144 131 145 0
144 -131 -145 0
144 131 145 0
-145 -132 146 0
-145 132 146 0
145 -132 -146 0
145 132 -146 0
-146 -133 147 0
-146 133 147 0
146 -133 147 0
146 133 -147 0
-147 -134 -148 0
-147 134 148 0
147 -134 -148 0
147 134 148 0
-148 -135 -149 0
-148 135 149 0
148 -135 149 0
148 135 -149 0
-149 -136 -150 0
-149 136 150 0
149 -136 -150 0
149 136 -150 0
-150 -137 -151 0
-150 137 151 0
150 -137 -151 0
150 137 -151 0
-151 -138 -751 152 0
-151 -138 751 -152 0
-151 138 -752 152 0
-151 138 752 -152 0
151 -138 -753 152 0
151 -138 753 -152 0
151 138 -754 152 0
151 138 754 -152 0
-152 -139 -755 153 0
-152 -139 755 -153 0
-152 139 -756 153 0
-152 139 756 -153 0
152 -139 -757 153 0
152 -139 757 -153 0
152 139 -758 153 0
152 139 758 -153 0
-153 -140 154 0
-153 140 -154 0
153 -140 154 0
153 140 154 0
-141 155 0
141 -155 0
-155 -142 156 0
-155 142 -156 0
155 -142 156 0
155 142 156 0
-156 -143 -769 157 0
-156 -143 769 -157 0
-156 143 -770 157 0
-156 143 770 -157 0
156 -143 -771 157 0
156 -143 771 -157 0
156 143 -772 157 0
156 143 772 -157 0
-157 -144 -773 158 0
-157 -144 773 -158 0
-157 144 -774 158 0
-157 144 774 -158 0
157 -144 -775 158 0
157 -144 775 -158 0
157 144 -776 158 0
157 144 776 -158 0
-158 -145 -159 0
-158 145 159 0
158 -145 -159 0
158 145 -159 0
-159 -146 160 0
-159 146 -160 0
159 -146 160 0
159 146 160 0
-160 -147 -161 0
-160 147 161 0
160 -147 -161 0
160 147 -161 0
-161 -148 -789 162 0
-161 -148 789 -162 0
-161 148 -790 162 0
-161 148 790 -162 0
161 -148 -791 162 0
161 -148 791 -162 0
161 148 -792 162 0
161 148 792 -162 0
-162 -149 163 0
-162 149 163 0
162 -149 -163 0
162 149 163 0
-163 -150 -164 0
-163 150 164 0
163 -150 -164 0
163 150 -164 0
-164 -151 -165 0
-164 151 -165 0
164 -151 165 0
164 151 -165 0
-165 -152 -805 166 0
-165 -152 805 -166 0
-165 152 -806 166 0
-165 152 806 -166 0
165 -152 -807 166 0
165 -152 807 -166 0
165 152 -808 166 0
165 152 808 -166 0
-166 -153 -809 167 0
-166 -153 809 -167 0
-166 153 -810 167 0
-166 153 810 -167 0
166 -153 -811 167 0
166 -153 811 -167 0
166 153 -812 167 0
166 153 812 -167 0
-167 -154 168 0
-167 154 168 0
167 -154 -168 0
167 154 168 0
-155 -817 169 0
-155 817 -169 0
155 -818 169 0
155 818 -169 0
-169 -156 -170 0
-169 156 170 0
169 -156 -170 0
169 156 -170 0
-170 -157 171 0
-170 157 -171 0
170 -157 -171 0
170 157 171 0
-171 -158 -172 0
-171 158 172 0
171 -158 172 0
171 158 -172 0
-172 -159 173 0
-172 159 -173 0
172 -159 173 0
172 159 -173 0
-173 -160 -174 0
-173 160 -174 0
173 -160 -174 0
173 160 174 0
-174 -161 -175 0
-174 161 175 0
174 -161 -175 0
174 161 175 0
-175 -162 -176 0
-175 162 176 0
175 -162 -176 0
175 162 176 0
-176 -163 -177 0
-176 163 -177 0
176 -163 -177 0
176 163 177 0
-177 -164 -851 178 0
-177 -164 851 -178 0
-177 164 -852 178 0
-177 164 852 -178 0
177 -164 -853 178 0
177 -164 853 -178 0
177 164 -854 178 0
177 164 854 -178 0
-178 -165 -179 0
-178 165 179 0
178 -165 -179 0
178 165 -179 0
-179 -166 -180 0
-179 166 180 0
179 -166 -180 0
179 166 180 0
-180 -167 -181 0
-180 167 -181 0
180 -167 -181 0
180 167 181 0
-181 -168 -182 0
-181 168 -182 0
181 -168 -182 0
181 168 182 0
-169 -183 0
169 183 0
-183 -170 184 0
-183 170 -184 0
183 -170 184 0
183 170 184 0
-184 -171 185 0
-184 171 -185 0
184 -171 185 0
184 171 -185 0
-185 -172 186 0
-185 172 -186 0
185 -172 -186 0
185 172 -186 0
-186 -173 -885 187 0
-186 -173 885 -187 0
-186 173 -886 187 0
-186 173 886 -187 0
186 -173 -887 187 0
186 -173 887 -187 0
186 173 -888 187 0
186 173 888 -187 0
-187 -174 188 0
-187 174 188 0
187 -174 188 0
187 174 -188 0
-188 -175 189 0
-188 175 -189 0
188 -175 189 0
188 175 -189 0
-189 -176 190 0
-189 176 190 0
189 -176 190 0
189 176 -190 0
-190 -177 -901 191 0
-190 -177 901 -191 0
-190 177 -902 191 0
-190 177 902 -191 0
190 -177 -903 191 0
190 -177 903 -191 0
190 177 -904 191 0
190 177 904 -191 0
-191 -178 -905 192 0
-191 -178 905 -192 0
-191 178 -906 192 0
-191 178 906 -192 0
191 -178 -907 192 0
191 -178 907 -192 0
191 178 -908 192 0
191 178 908 -192 0
-192 -179 193 0
-192 179 -193 0
192 -179 -193 0
192 179 193 0
-193 -180 194 0
-193 180 -194 0
193 -180 194 0
193 180 -194 0
-194 -181 -195 0
-194 181 195 0
194 -181 -195 0
194 181 -195 0
-195 -182 -196 0
-195 182 196 0
195 -182 196 0
195 182 196 0
196 0
