data/benchmarks/bayes/75-14-7-q.gr
p tw 924 1037
167 811
67 68
177 190
26 268
99 100
26 39
136 149
69 486
59 73
187 887
159 160
8 9
118 131
40 41
77 90
135 687
100 101
132 133
47 345
92 106
107 634
192 193
41 42
151 164
73 74
73 501
100 604
110 123
127 710
33 47
133 134
83 542
55 434
125 139
51 64
139 702
16 232
166 805
74 75
106 107
143 156
66 80
138 752
115 610
166 167
34 295
15 16
47 48
158 172
43 334
7 21
6 205
32 343
107 108
99 113
148 792
48 49
8 251
80 81
152 753
40 54
82 536
74 452
132 146
144 776
81 82
94 528
25 38
190 901
13 222
50 360
73 87
173 174
22 23
33 298
165 179
166 809
14 28
114 115
155 818
106 120
55 56
60 400
108 584
26 267
47 61
147 148
187 886
69 485
139 153
79 526
152 757
135 686
80 94
107 633
1 197
172 186
127 709
100 603
83 541
181 182
55 433
87 502
130 720
173 187
48 403
84 97
176 189
164 852
24 311
114 604
158 171
43 333
97 542
117 130
32 342
107 583
21 22
73 450
58 71
46 344
147 161
148 791
186 885
152 752
83 491
113 114
150 163
82 535
12 220
49 358
178 908
74 451
132 145
54 55
144 775
91 104
165 807
94 527
30 335
25 266
84 492
138 701
146 147
50 359
22 251
32 45
165 178
87 88
166 808
124 137
134 685
179 180
41 377
106 119
65 78
60 399
114 608
88 89
120 121
157 170
6 19
180 181
177 902
29 30
139 152
61 62
79 525
98 111
46 348
83 486
21 35
169 818
121 122
135 685
152 756
120 633
153 154
80 93
153 810
2 3
113 127
39 52
62 63
172 185
47 401
94 95
131 144
54 68
121 634
13 27
93 526
3 4
55 432
35 36
87 501
72 85
146 160
105 119
130 719
95 96
69 434
127 128
164 177
139 758
87 101
187 188
46 60
164 851
36 37
114 603
68 69
45 342
179 193
28 42
97 541
128 129
160 161
107 582
144 720
120 134
21 250
161 791
79 93
73 449
69 70
46 343
101 102
152 751
83 490
61 75
161 162
20 34
162 792
10 11
49 357
153 167
2 16
102 103
165 806
143 769
30 334
25 265
94 108
194 195
158 776
53 67
22 250
43 44
93 530
86 500
35 49
48 406
135 136
127 141
38 51
86 100
76 77
24 314
114 607
141 710
68 82
151 754
27 41
177 901
160 174
186 888
169 817
46 347
83 485
55 377
153 809
101 115
120 632
12 25
60 74
47 400
101 609
1 15
138 704
121 633
3 232
13 26
93 525
105 118
69 433
85 548
134 688
139 757
9 10
46 59
62 403
41 380
45 341
138 151
82 488
178 852
38 311
19 32
107 581
144 719
161 790
21 249
79 92
134 135
83 489
171 184
191 907
20 33
3 200
75 76
113 606
112 125
30 333
20 298
192 908
16 17
158 775
53 66
93 529
94 583
61 406
44 335
173 885
108 109
86 499
145 158
70 491
96 540
37 314
49 50
86 99
109 110
141 709
178 191
125 701
27 40
92 524
50 51
82 83
119 132
42 56
191 902
142 143
120 631
23 24
134 148
60 73
83 84
115 116
47 399
101 608
152 165
14 222
68 431
75 89
143 772
34 48
57 440
24 25
93 524
175 176
61 401
93 106
16 30
157 774
116 117
33 348
69 432
54 380
96 535
108 122
139 756
67 81
57 58
167 168
89 90
126 139
153 758
49 63
159 173
149 150
8 22
60 450
82 487
178 851
30 31
161 789
2 198
100 114
90 91
36 358
143 722
82 96
191 906
55 380
41 55
31 32
141 142
152 807
3 199
12 266
23 37
133 147
113 605
123 124
115 129
95 538
74 88
64 65
94 582
121 685
61 405
44 334
157 769
174 175
56 70
166 180
156 157
167 810
15 29
5 6
70 490
177 854
96 539
37 313
59 72
107 121
62 406
97 98
167 181
89 103
189 190
48 62
148 149
92 523
80 530
92 105
30 44
140 154
191 901
73 500
33 46
81 95
141 155
125 138
139 701
156 772
16 231
101 607
22 36
122 123
34 47
66 79
138 751
61 400
115 609
114 128
157 773
174 188
17 232
7 20
54 379
55 69
67 80
99 548
153 757
159 172
8 250
8 21
60 449
40 53
2 197
63 64
100 113
47 348
148 162
36 357
143 721
191 905
4 5
41 54
13 221
73 86
152 806
12 265
33 297
133 146
181 195
14 27
155 817
37 38
95 537
74 87
122 136
61 404
44 333
34 298
166 179
167 809
108 583
26 266
47 60
177 853
37 312
187 885
107 120
130 131
167 180
11 12
48 61
80 529
107 632
140 153
163 164
73 499
44 45
81 94
83 540
190 904
156 771
173 186
16 230
22 35
166 812
155 156
61 399
115 608
114 127
121 688
137 138
174 187
71 440
96 97
18 19
54 378
32 341
55 68
88 102
188 189
69 488
147 160
153 756
148 790
170 171
8 249
29 43
180 194
129 130
12 219
121 135
178 907
111 112
47 347
148 161
74 450
143 720
144 774
84 491
62 76
100 606
162 163
13 220
50 358
154 168
33 296
144 145
3 17
181 194
103 104
139 704
166 807
5 206
95 536
85 86
95 109
122 135
138 754
195 196
155 169
177 178
36 50
108 582
43 336
26 265
136 137
96 110
128 142
118 119
77 78
79 524
21 34
69 83
152 755
169 170
82 538
129 143
161 175
107 631
151 152
10 24
110 111
54 67
94 530
102 116
83 539
190 903
55 431
51 52
87 500
146 159
162 176
156 770
16 229
43 57
143 144
166 811
103 117
87 100
135 149
179 192
60 402
28 41
97 540
76 90
88 101
136 150
120 133
69 487
168 182
46 342
148 789
180 193
77 91
61 74
135 688
162 791
121 134
178 906
169 183
153 166
74 449
2 15
144 773
165 805
25 26
84 490
62 75
100 605
94 107
110 124
50 357
22 249
154 167
3 16
51 65
35 48
130 722
48 405
166 806
5 205
95 108
17 18
143 157
164 854
9 23
24 313
114 606
36 49
43 335
68 81
151 753
128 141
160 173
79 523
73 452
186 887
46 346
69 82
152 754
101 114
82 537
49 360
161 174
10 23
94 529
138 703
25 268
3 231
102 115
121 632
87 499
176 177
85 547
134 687
135 148
41 379
17 31
117 118
60 401
97 539
114 610
76 89
109 123
58 59
168 181
177 904
46 341
191 192
50 64
150 151
83 488
152 758
153 812
142 156
162 790
178 905
91 92
1 198
83 97
84 489
20 297
183 184
192 907
32 33
158 774
93 528
175 189
165 166
24 38
124 125
130 721
48 404
84 98
116 130
65 66
176 190
164 853
9 22
24 312
57 71
45 344
114 605
157 158
151 752
6 7
117 131
38 314
149 163
139 140
107 584
144 722
21 252
186 886
73 451
58 72
46 345
42 55
90 104
190 191
83 492
39 40
150 164
134 147
182 196
49 359
172 173
31 45
131 132
91 105
14 221
75 88
123 137
30 336
25 267
3 230
57 439
93 523
72 73
121 631
138 702
143 771
22 252
32 46
16 29
64 78
173 888
164 165
33 347
69 431
86 502
124 138
108 121
134 686
139 755
156 170
5 19
41 378
17 30
65 79
49 62
114 609
97 111
82 486
109 122
125 704
157 171
6 20
177 903
50 63
98 112
82 95
83 487
55 379
153 811
120 634
142 155
162 789
39 53
23 36
113 604
47 402
83 96
20 296
68 434
115 128
131 145
192 906
158 773
93 527
94 581
175 188
24 37
72 86
56 69
70 489
116 129
38 39
96 538
164 178
62 405
45 343
89 102
151 751
178 854
38 313
149 162
71 72
161 792
144 721
21 251
30 43
63 77
90 103
12 13
4 18
182 195
104 105
31 44
13 14
123 136
143 770
45 46
3 229
105 106
37 51
157 772
64 77
17 231
173 887
33 346
86 501
46 47
156 169
78 79
96 542
5 18
38 52
138 139
70 84
99 547
97 110
19 20
82 485
130 144
125 703
79 80
11 25
92 526
71 85
171 172
20 21
191 904
55 378
52 53
163 177
152 805
12 26
44 58
113 603
104 118
101 610
192 905
20 295
68 433
53 54
45 59
61 403
34 297
145 146
157 776
26 27
137 151
177 852
96 537
37 311
86 87
18 32
62 404
78 92
178 179
27 28
138 152
178 853
60 452
170 184
38 312
19 33
119 120
2 200
80 528
63 76
111 125
36 360
60 61
171 185
191 908
4 17
52 66
12 268
152 153
1 2
112 126
144 158
93 94
115 607
94 584
37 50
121 687
85 99
44 336
157 771
17 230
71 439
185 186
33 345
145 159
167 812
54 377
173 886
177 191
70 492
26 40
96 541
187 888
70 83
153 755
118 132
186 187
130 143
178 192
125 702
11 24
92 525
47 346
143 719
119 133
151 165
191 903
73 502
163 176
13 219
44 57
165 808
33 295
139 703
104 117
152 166
68 432
95 535
138 753
45 58
61 402
34 296
93 107
193 194
157 775
108 581
137 150
59 60
177 851
6 206
32 344
96 536
18 31
96 109
78 91
126 140
8 252
60 451
170 183
92 93
129 142
2 199
80 527
184 185
111 124
36 359
33 34
25 39
190 902
125 126
152 808
52 65
162 175
12 267
156 769
34 35
144 157
166 810
66 67
103 116
158 159
121 686
157 770
7 8
17 229
